p cnf 420 640
16 30 95 101 102 0
16 30 95 101 -102 0
16 30 95 -101 102 0
16 30 95 -101 -102 0
-16 30 95 103 104 0
-16 30 95 103 -104 0
-16 30 95 -103 104 0
-16 30 95 -103 -104 0
-30 35 78 105 106 0
-30 35 78 105 -106 0
-30 35 78 -105 106 0
-30 35 78 -105 -106 0
-30 -78 85 107 108 0
-30 -78 85 107 -108 0
-30 -78 85 -107 108 0
-30 -78 85 -107 -108 0
-78 -85 95 109 110 0
-78 -85 95 109 -110 0
-78 -85 95 -109 110 0
-78 -85 95 -109 -110 0
8 55 100 111 112 0
8 55 100 111 -112 0
8 55 100 -111 112 0
8 55 100 -111 -112 0
8 55 -95 113 114 0
8 55 -95 113 -114 0
8 55 -95 -113 114 0
8 55 -95 -113 -114 0
9 52 100 115 116 0
9 52 100 115 -116 0
9 52 100 -115 116 0
9 52 100 -115 -116 0
9 73 -100 117 118 0
9 73 -100 117 -118 0
9 73 -100 -117 118 0
9 73 -100 -117 -118 0
-8 -9 52 119 120 0
-8 -9 52 119 -120 0
-8 -9 52 -119 120 0
-8 -9 52 -119 -120 0
38 66 83 121 122 0
38 66 83 121 -122 0
38 66 83 -121 122 0
38 66 83 -121 -122 0
-38 83 87 123 124 0
-38 83 87 123 -124 0
-38 83 87 -123 124 0
-38 83 87 -123 -124 0
-52 83 -87 125 126 0
-52 83 -87 125 -126 0
-52 83 -87 -125 126 0
-52 83 -87 -125 -126 0
66 74 -83 127 128 0
66 74 -83 127 -128 0
66 74 -83 -127 128 0
66 74 -83 -127 -128 0
-52 -66 89 129 130 0
-52 -66 89 129 -130 0
-52 -66 89 -129 130 0
-52 -66 89 -129 -130 0
-52 73 -89 131 132 0
-52 73 -89 131 -132 0
-52 73 -89 -131 132 0
-52 73 -89 -131 -132 0
-52 73 -74 133 134 0
-52 73 -74 133 -134 0
-52 73 -74 -133 134 0
-52 73 -74 -133 -134 0
-8 -73 -95 135 136 0
-8 -73 -95 135 -136 0
-8 -73 -95 -135 136 0
-8 -73 -95 -135 -136 0
40 -55 90 137 138 0
40 -55 90 137 -138 0
40 -55 90 -137 138 0
40 -55 90 -137 -138 0
-40 -55 90 139 140 0
-40 -55 90 139 -140 0
-40 -55 90 -139 140 0
-40 -55 90 -139 -140 0
25 35 82 141 142 0
25 35 82 141 -142 0
25 35 82 -141 142 0
25 35 82 -141 -142 0
-25 82 -90 143 144 0
-25 82 -90 143 -144 0
-25 82 -90 -143 144 0
-25 82 -90 -143 -144 0
-55 -82 -90 145 146 0
-55 -82 -90 145 -146 0
-55 -82 -90 -145 146 0
-55 -82 -90 -145 -146 0
11 75 84 147 148 0
11 75 84 147 -148 0
11 75 84 -147 148 0
11 75 84 -147 -148 0
11 -75 96 149 150 0
11 -75 96 149 -150 0
11 -75 96 -149 150 0
11 -75 96 -149 -150 0
23 -75 -96 151 152 0
23 -75 -96 151 -152 0
23 -75 -96 -151 152 0
23 -75 -96 -151 -152 0
-11 23 -35 153 154 0
-11 23 -35 153 -154 0
-11 23 -35 -153 154 0
-11 23 -35 -153 -154 0
-23 29 65 155 156 0
-23 29 65 155 -156 0
-23 29 65 -155 156 0
-23 29 65 -155 -156 0
29 -35 -65 157 158 0
29 -35 -65 157 -158 0
29 -35 -65 -157 158 0
29 -35 -65 -157 -158 0
-23 -29 84 159 160 0
-23 -29 84 159 -160 0
-23 -29 84 -159 160 0
-23 -29 84 -159 -160 0
-35 54 70 161 162 0
-35 54 70 161 -162 0
-35 54 70 -161 162 0
-35 54 70 -161 -162 0
-54 70 77 163 164 0
-54 70 77 163 -164 0
-54 70 77 -163 164 0
-54 70 77 -163 -164 0
19 -77 -84 165 166 0
19 -77 -84 165 -166 0
19 -77 -84 -165 166 0
19 -77 -84 -165 -166 0
-19 -54 70 167 168 0
-19 -54 70 167 -168 0
-19 -54 70 -167 168 0
-19 -54 70 -167 -168 0
22 68 81 169 170 0
22 68 81 169 -170 0
22 68 81 -169 170 0
22 68 81 -169 -170 0
-22 48 81 171 172 0
-22 48 81 171 -172 0
-22 48 81 -171 172 0
-22 48 81 -171 -172 0
-22 -48 93 173 174 0
-22 -48 93 173 -174 0
-22 -48 93 -173 174 0
-22 -48 93 -173 -174 0
3 -48 -93 175 176 0
3 -48 -93 175 -176 0
3 -48 -93 -175 176 0
3 -48 -93 -175 -176 0
7 18 -81 177 178 0
7 18 -81 177 -178 0
7 18 -81 -177 178 0
7 18 -81 -177 -178 0
-7 56 -81 179 180 0
-7 56 -81 179 -180 0
-7 56 -81 -179 180 0
-7 56 -81 -179 -180 0
3 18 -56 181 182 0
3 18 -56 181 -182 0
3 18 -56 -181 182 0
3 18 -56 -181 -182 0
-18 47 68 183 184 0
-18 47 68 183 -184 0
-18 47 68 -183 184 0
-18 47 68 -183 -184 0
-18 -47 -81 185 186 0
-18 -47 -81 185 -186 0
-18 -47 -81 -185 186 0
-18 -47 -81 -185 -186 0
-3 68 77 187 188 0
-3 68 77 187 -188 0
-3 68 77 -187 188 0
-3 68 77 -187 -188 0
-3 -77 -84 189 190 0
-3 -77 -84 189 -190 0
-3 -77 -84 -189 190 0
-3 -77 -84 -189 -190 0
19 -68 -70 191 192 0
19 -68 -70 191 -192 0
19 -68 -70 -191 192 0
19 -68 -70 -191 -192 0
-19 -68 74 193 194 0
-19 -68 74 193 -194 0
-19 -68 74 -193 194 0
-19 -68 74 -193 -194 0
-68 -70 -74 195 196 0
-68 -70 -74 195 -196 0
-68 -70 -74 -195 196 0
-68 -70 -74 -195 -196 0
54 61 -62 197 198 0
54 61 -62 197 -198 0
54 61 -62 -197 198 0
54 61 -62 -197 -198 0
50 53 -62 199 200 0
50 53 -62 199 -200 0
50 53 -62 -199 200 0
50 53 -62 -199 -200 0
-50 61 -62 201 202 0
-50 61 -62 201 -202 0
-50 61 -62 -201 202 0
-50 61 -62 -201 -202 0
-27 56 93 203 204 0
-27 56 93 203 -204 0
-27 56 93 -203 204 0
-27 56 93 -203 -204 0
4 14 76 205 206 0
4 14 76 205 -206 0
4 14 76 -205 206 0
4 14 76 -205 -206 0
4 -76 96 207 208 0
4 -76 96 207 -208 0
4 -76 96 -207 208 0
4 -76 96 -207 -208 0
-4 14 80 209 210 0
-4 14 80 209 -210 0
-4 14 80 -209 210 0
-4 14 80 -209 -210 0
-14 -68 80 211 212 0
-14 -68 80 211 -212 0
-14 -68 80 -211 212 0
-14 -68 80 -211 -212 0
-10 -39 -89 213 214 0
-10 -39 -89 213 -214 0
-10 -39 -89 -213 214 0
-10 -39 -89 -213 -214 0
1 49 -81 215 216 0
1 49 -81 215 -216 0
1 49 -81 -215 216 0
1 49 -81 -215 -216 0
1 26 -49 217 218 0
1 26 -49 217 -218 0
1 26 -49 -217 218 0
1 26 -49 -217 -218 0
17 -26 -49 219 220 0
17 -26 -49 219 -220 0
17 -26 -49 -219 220 0
17 -26 -49 -219 -220 0
-1 17 -40 221 222 0
-1 17 -40 221 -222 0
-1 17 -40 -221 222 0
-1 17 -40 -221 -222 0
16 51 -89 223 224 0
16 51 -89 223 -224 0
16 51 -89 -223 224 0
16 51 -89 -223 -224 0
-9 57 60 225 226 0
-9 57 60 225 -226 0
-9 57 60 -225 226 0
-9 57 60 -225 -226 0
12 45 -51 227 228 0
12 45 -51 227 -228 0
12 45 -51 -227 228 0
12 45 -51 -227 -228 0
2 12 69 229 230 0
2 12 69 229 -230 0
2 12 69 -229 230 0
2 12 69 -229 -230 0
2 -12 40 231 232 0
2 -12 40 231 -232 0
2 -12 40 -231 232 0
2 -12 40 -231 -232 0
-12 -51 69 233 234 0
-12 -51 69 233 -234 0
-12 -51 69 -233 234 0
-12 -51 69 -233 -234 0
-33 60 -98 235 236 0
-33 60 -98 235 -236 0
-33 60 -98 -235 236 0
-33 60 -98 -235 -236 0
5 -32 -66 237 238 0
5 -32 -66 237 -238 0
5 -32 -66 -237 238 0
5 -32 -66 -237 -238 0
2 -47 -100 239 240 0
2 -47 -100 239 -240 0
2 -47 -100 -239 240 0
2 -47 -100 -239 -240 0
-42 64 83 241 242 0
-42 64 83 241 -242 0
-42 64 83 -241 242 0
-42 64 83 -241 -242 0
20 -42 -64 243 244 0
20 -42 -64 243 -244 0
20 -42 -64 -243 244 0
20 -42 -64 -243 -244 0
20 -48 98 245 246 0
20 -48 98 245 -246 0
20 -48 98 -245 246 0
20 -48 98 -245 -246 0
-20 50 98 247 248 0
-20 50 98 247 -248 0
-20 50 98 -247 248 0
-20 50 98 -247 -248 0
-32 -50 98 249 250 0
-32 -50 98 249 -250 0
-32 -50 98 -249 250 0
-32 -50 98 -249 -250 0
-24 37 -73 251 252 0
-24 37 -73 251 -252 0
-24 37 -73 -251 252 0
-24 37 -73 -251 -252 0
-24 -37 -100 253 254 0
-24 -37 -100 253 -254 0
-24 -37 -100 -253 254 0
-24 -37 -100 -253 -254 0
-57 71 81 255 256 0
-57 71 81 255 -256 0
-57 71 81 -255 256 0
-57 71 81 -255 -256 0
-37 40 -91 257 258 0
-37 40 -91 257 -258 0
-37 40 -91 -257 258 0
-37 40 -91 -257 -258 0
31 42 81 259 260 0
31 42 81 259 -260 0
31 42 81 -259 260 0
31 42 81 -259 -260 0
-31 42 72 261 262 0
-31 42 72 261 -262 0
-31 42 72 -261 262 0
-31 42 72 -261 -262 0
-31 42 -72 263 264 0
-31 42 -72 263 -264 0
-31 42 -72 -263 264 0
-31 42 -72 -263 -264 0
7 -19 25 265 266 0
7 -19 25 265 -266 0
7 -19 25 -265 266 0
7 -19 25 -265 -266 0
-1 -25 -94 267 268 0
-1 -25 -94 267 -268 0
-1 -25 -94 -267 268 0
-1 -25 -94 -267 -268 0
-15 -44 79 269 270 0
-15 -44 79 269 -270 0
-15 -44 79 -269 270 0
-15 -44 79 -269 -270 0
-6 31 46 271 272 0
-6 31 46 271 -272 0
-6 31 46 -271 272 0
-6 31 46 -271 -272 0
-39 41 88 273 274 0
-39 41 88 273 -274 0
-39 41 88 -273 274 0
-39 41 88 -273 -274 0
28 -39 43 275 276 0
28 -39 43 275 -276 0
28 -39 43 -275 276 0
28 -39 43 -275 -276 0
28 -43 -88 277 278 0
28 -43 -88 277 -278 0
28 -43 -88 -277 278 0
28 -43 -88 -277 -278 0
-4 -28 -88 279 280 0
-4 -28 -88 279 -280 0
-4 -28 -88 -279 280 0
-4 -28 -88 -279 -280 0
-30 -39 -41 281 282 0
-30 -39 -41 281 -282 0
-30 -39 -41 -281 282 0
-30 -39 -41 -281 -282 0
-29 33 88 283 284 0
-29 33 88 283 -284 0
-29 33 88 -283 284 0
-29 33 88 -283 -284 0
-16 21 94 285 286 0
-16 21 94 285 -286 0
-16 21 94 -285 286 0
-16 21 94 -285 -286 0
-10 26 62 287 288 0
-10 26 62 287 -288 0
-10 26 62 -287 288 0
-10 26 62 -287 -288 0
-11 -64 86 289 290 0
-11 -64 86 289 -290 0
-11 -64 86 -289 290 0
-11 -64 86 -289 -290 0
-6 -41 76 291 292 0
-6 -41 76 291 -292 0
-6 -41 76 -291 292 0
-6 -41 76 -291 -292 0
38 -46 93 293 294 0
38 -46 93 293 -294 0
38 -46 93 -293 294 0
38 -46 93 -293 -294 0
26 -37 94 295 296 0
26 -37 94 295 -296 0
26 -37 94 -295 296 0
26 -37 94 -295 -296 0
-26 53 -79 297 298 0
-26 53 -79 297 -298 0
-26 53 -79 -297 298 0
-26 53 -79 -297 -298 0
78 87 -94 299 300 0
78 87 -94 299 -300 0
78 87 -94 -299 300 0
78 87 -94 -299 -300 0
65 76 -87 301 302 0
65 76 -87 301 -302 0
65 76 -87 -301 302 0
65 76 -87 -301 -302 0
23 51 -62 303 304 0
23 51 -62 303 -304 0
23 51 -62 -303 304 0
23 51 -62 -303 -304 0
-11 -36 57 305 306 0
-11 -36 57 305 -306 0
-11 -36 57 -305 306 0
-11 -36 57 -305 -306 0
41 59 -65 307 308 0
41 59 -65 307 -308 0
41 59 -65 -307 308 0
41 59 -65 -307 -308 0
-56 72 -91 309 310 0
-56 72 -91 309 -310 0
-56 72 -91 -309 310 0
-56 72 -91 -309 -310 0
13 -20 -46 311 312 0
13 -20 -46 311 -312 0
13 -20 -46 -311 312 0
13 -20 -46 -311 -312 0
-13 15 79 313 314 0
-13 15 79 313 -314 0
-13 15 79 -313 314 0
-13 15 79 -313 -314 0
-17 47 -60 315 316 0
-17 47 -60 315 -316 0
-17 47 -60 -315 316 0
-17 47 -60 -315 -316 0
-13 -44 99 317 318 0
-13 -44 99 317 -318 0
-13 -44 99 -317 318 0
-13 -44 99 -317 -318 0
-7 -38 67 319 320 0
-7 -38 67 319 -320 0
-7 -38 67 -319 320 0
-7 -38 67 -319 -320 0
37 -49 62 321 322 0
37 -49 62 321 -322 0
37 -49 62 -321 322 0
37 -49 62 -321 -322 0
-14 -17 -79 323 324 0
-14 -17 -79 323 -324 0
-14 -17 -79 -323 324 0
-14 -17 -79 -323 -324 0
-13 -15 -22 325 326 0
-13 -15 -22 325 -326 0
-13 -15 -22 -325 326 0
-13 -15 -22 -325 -326 0
32 -33 -34 327 328 0
32 -33 -34 327 -328 0
32 -33 -34 -327 328 0
32 -33 -34 -327 -328 0
24 45 48 329 330 0
24 45 48 329 -330 0
24 45 48 -329 330 0
24 45 48 -329 -330 0
21 24 -48 331 332 0
21 24 -48 331 -332 0
21 24 -48 -331 332 0
21 24 -48 -331 -332 0
-36 64 -85 333 334 0
-36 64 -85 333 -334 0
-36 64 -85 -333 334 0
-36 64 -85 -333 -334 0
10 -61 67 335 336 0
10 -61 67 335 -336 0
10 -61 67 -335 336 0
10 -61 67 -335 -336 0
-5 44 59 337 338 0
-5 44 59 337 -338 0
-5 44 59 -337 338 0
-5 44 59 -337 -338 0
-80 -85 -99 339 340 0
-80 -85 -99 339 -340 0
-80 -85 -99 -339 340 0
-80 -85 -99 -339 -340 0
6 37 -97 341 342 0
6 37 -97 341 -342 0
6 37 -97 -341 342 0
6 37 -97 -341 -342 0
-21 -34 64 343 344 0
-21 -34 64 343 -344 0
-21 -34 64 -343 344 0
-21 -34 64 -343 -344 0
-5 44 46 345 346 0
-5 44 46 345 -346 0
-5 44 46 -345 346 0
-5 44 46 -345 -346 0
58 -76 97 347 348 0
58 -76 97 347 -348 0
58 -76 97 -347 348 0
58 -76 97 -347 -348 0
-21 -36 75 349 350 0
-21 -36 75 349 -350 0
-21 -36 75 -349 350 0
-21 -36 75 -349 -350 0
-15 58 -59 351 352 0
-15 58 -59 351 -352 0
-15 58 -59 -351 352 0
-15 58 -59 -351 -352 0
-58 -76 -99 353 354 0
-58 -76 -99 353 -354 0
-58 -76 -99 -353 354 0
-58 -76 -99 -353 -354 0
-2 15 33 355 356 0
-2 15 33 355 -356 0
-2 15 33 -355 356 0
-2 15 33 -355 -356 0
-26 34 -57 357 358 0
-26 34 -57 357 -358 0
-26 34 -57 -357 358 0
-26 34 -57 -357 -358 0
-18 -82 -92 359 360 0
-18 -82 -92 359 -360 0
-18 -82 -92 -359 360 0
-18 -82 -92 -359 -360 0
27 -80 -97 361 362 0
27 -80 -97 361 -362 0
27 -80 -97 -361 362 0
27 -80 -97 -361 -362 0
6 32 63 363 364 0
6 32 63 363 -364 0
6 32 63 -363 364 0
6 32 63 -363 -364 0
-34 -86 92 365 366 0
-34 -86 92 365 -366 0
-34 -86 92 -365 366 0
-34 -86 92 -365 -366 0
13 -61 97 367 368 0
13 -61 97 367 -368 0
13 -61 97 -367 368 0
13 -61 97 -367 -368 0
-28 43 -98 369 370 0
-28 43 -98 369 -370 0
-28 43 -98 -369 370 0
-28 43 -98 -369 -370 0
5 39 -86 371 372 0
5 39 -86 371 -372 0
5 39 -86 -371 372 0
5 39 -86 -371 -372 0
39 -45 92 373 374 0
39 -45 92 373 -374 0
39 -45 92 -373 374 0
39 -45 92 -373 -374 0
27 -43 97 375 376 0
27 -43 97 375 -376 0
27 -43 97 -375 376 0
27 -43 97 -375 -376 0
13 -58 -86 377 378 0
13 -58 -86 377 -378 0
13 -58 -86 -377 378 0
13 -58 -86 -377 -378 0
-28 -67 -93 379 380 0
-28 -67 -93 379 -380 0
-28 -67 -93 -379 380 0
-28 -67 -93 -379 -380 0
-69 85 99 381 382 0
-69 85 99 381 -382 0
-69 85 99 -381 382 0
-69 85 99 -381 -382 0
42 71 -72 383 384 0
42 71 -72 383 -384 0
42 71 -72 -383 384 0
42 71 -72 -383 -384 0
10 -27 -63 385 386 0
10 -27 -63 385 -386 0
10 -27 -63 -385 386 0
10 -27 -63 -385 -386 0
-59 63 -83 387 388 0
-59 63 -83 387 -388 0
-59 63 -83 -387 388 0
-59 63 -83 -387 -388 0
36 86 -96 389 390 0
36 86 -96 389 -390 0
36 86 -96 -389 390 0
36 86 -96 -389 -390 0
-2 36 75 391 392 0
-2 36 75 391 -392 0
-2 36 75 -391 392 0
-2 36 75 -391 -392 0
-59 -71 89 393 394 0
-59 -71 89 393 -394 0
-59 -71 89 -393 394 0
-59 -71 89 -393 -394 0
36 -67 91 395 396 0
36 -67 91 395 -396 0
36 -67 91 -395 396 0
36 -67 91 -395 -396 0
36 -60 63 397 398 0
36 -60 63 397 -398 0
36 -60 63 -397 398 0
36 -60 63 -397 -398 0
-63 91 -93 399 400 0
-63 91 -93 399 -400 0
-63 91 -93 -399 400 0
-63 91 -93 -399 -400 0
25 87 92 401 402 0
25 87 92 401 -402 0
25 87 92 -401 402 0
25 87 92 -401 -402 0
-21 49 -71 403 404 0
-21 49 -71 403 -404 0
-21 49 -71 -403 404 0
-21 49 -71 -403 -404 0
-2 10 22 405 406 0
-2 10 22 405 -406 0
-2 10 22 -405 406 0
-2 10 22 -405 -406 0
6 -18 41 407 408 0
6 -18 41 407 -408 0
6 -18 41 -407 408 0
6 -18 41 -407 -408 0
6 71 -92 409 410 0
6 71 -92 409 -410 0
6 71 -92 -409 410 0
6 71 -92 -409 -410 0
-53 -69 -71 411 412 0
-53 -69 -71 411 -412 0
-53 -69 -71 -411 412 0
-53 -69 -71 -411 -412 0
-2 -53 -58 413 414 0
-2 -53 -58 413 -414 0
-2 -53 -58 -413 414 0
-2 -53 -58 -413 -414 0
43 -45 -96 415 416 0
43 -45 -96 415 -416 0
43 -45 -96 -415 416 0
43 -45 -96 -415 -416 0
34 -45 -69 417 418 0
34 -45 -69 417 -418 0
34 -45 -69 -417 418 0
34 -45 -69 -417 -418 0
63 -86 -98 419 420 0
63 -86 -98 419 -420 0
63 -86 -98 -419 420 0
63 -86 -98 -419 -420 0
